(set-logic HORN)
(declare-fun state (Int Int Int Int Int Int Int Int Int Int Int (Array Int Int) (Array Int Int) (Array Int Int) (Array Int Int) Bool Int Int Int (Array Int Int) (Array Int Int) (Array Int Int)) Bool)
(assert (forall ((|E_1| Int) (|N_1| Int) (|F_1| Int) (|I_1| Int) (|L_1| Int) (|D_1| Int) (|K_1| Int) (|B_1| Int) (|M_1| Int) (|A_1| Int) (|G_1| Int) (|P_1| (Array Int Int)) (|Q_1| (Array Int Int)) (|R_1| (Array Int Int)) (|S_0| (Array Int Int)) (|.loc.17| Bool) (|C_1| Int) (|E_4| Int) (|B_5| Int) (|F_4| (Array Int Int)) (|G_4| (Array Int Int)) (|H_4| (Array Int Int)) (|.loc.33| Bool) (|.y.18| Int) (|.y.19| Int) (|.y.20| Int) (|.y.21| Int) (|.y.22| Int) (|.y.23| Int) (|.y.24| Int) (|.y.25| Int) (|.y.26| Int) (|.y.27| Int) (|.y.28| Int) (|.y.29| (Array Int Int)) (|.y.30| (Array Int Int)) (|.y.31| (Array Int Int)) (|.y.32| (Array Int Int)) (|.xtv.1| Int) (|.xiv.1| Int) (|.xiv.2| Int) (|.xiv.3| (Array Int Int)) (|.xiv.4| (Array Int Int)) (|.xiv.5| (Array Int Int))) (=> (let ((.def_32 (not .loc.17))) (let ((.def_40 (= (+ A_1 (* (- 1) (select P_1 A_1))) (- 4)))) (let ((.def_44 (not (<= A_1 0)))) (let ((.def_47 (= A_1 (select R_1 A_1)))) (let ((.def_49 (= B_1 0))) (let ((.def_51 (= D_1 A_1))) (let ((.def_53 (= I_1 0))) (let ((.def_64 (select F_4 E_4))) (let ((.def_68 (select H_4 E_4))) (let ((.def_72 (select H_4 B_5))) (let ((.def_76 (select F_4 B_5))) (let ((.def_81 (select G_4 B_5))) (or (and (and (and (and (and (and .def_32 .def_40) .def_44) .def_47) .def_49) .def_51) .def_53) (or (and .def_53 (and .def_51 (and (and .def_47 (and .def_44 (and .def_40 (and .def_32 (= F_1 0))))) (not .def_49)))) (and .loc.17 (and (= (+ E_4 (* (- 1) .def_64)) (- 4)) (and (= E_4 .def_68) (and (not (<= E_4 0)) (and (= .def_68 .def_72) (and (or (not (<= .def_72 B_5)) (<= .def_76 B_5)) (and (<= E_4 B_5) (and (and (and (= (select G_4 E_4) .def_81) (not (= .def_81 1))) (= .def_64 .def_76)) (not (<= (+ E_4 (* (- 1) B_5)) (- 4))))))))))))))))))))))))) (state |E_1| |N_1| |F_1| |I_1| |L_1| |D_1| |K_1| |B_1| |M_1| |A_1| |G_1| |P_1| |Q_1| |R_1| |S_0| |.loc.17| |C_1| |E_4| |B_5| |F_4| |G_4| |H_4|))))
(assert (forall ((|E_1| Int) (|N_1| Int) (|F_1| Int) (|I_1| Int) (|L_1| Int) (|D_1| Int) (|K_1| Int) (|B_1| Int) (|M_1| Int) (|A_1| Int) (|G_1| Int) (|P_1| (Array Int Int)) (|Q_1| (Array Int Int)) (|R_1| (Array Int Int)) (|S_0| (Array Int Int)) (|.loc.17| Bool) (|C_1| Int) (|E_4| Int) (|B_5| Int) (|F_4| (Array Int Int)) (|G_4| (Array Int Int)) (|H_4| (Array Int Int)) (|.loc.33| Bool) (|.y.18| Int) (|.y.19| Int) (|.y.20| Int) (|.y.21| Int) (|.y.22| Int) (|.y.23| Int) (|.y.24| Int) (|.y.25| Int) (|.y.26| Int) (|.y.27| Int) (|.y.28| Int) (|.y.29| (Array Int Int)) (|.y.30| (Array Int Int)) (|.y.31| (Array Int Int)) (|.y.32| (Array Int Int)) (|.xtv.1| Int) (|.xiv.1| Int) (|.xiv.2| Int) (|.xiv.3| (Array Int Int)) (|.xiv.4| (Array Int Int)) (|.xiv.5| (Array Int Int))) (=> (and (state |E_1| |N_1| |F_1| |I_1| |L_1| |D_1| |K_1| |B_1| |M_1| |A_1| |G_1| |P_1| |Q_1| |R_1| |S_0| |.loc.17| |C_1| |E_4| |B_5| |F_4| |G_4| |H_4|) (let ((.def_103 (select R_1 C_1))) (let ((.def_107 (select P_1 C_1))) (let ((.def_116 (select Q_1 C_1))) (and (and (not .loc.17) (and (= (+ A_1 (* (- 1) (select P_1 A_1))) (- 4)) (and (= (select R_1 D_1) .def_103) (and (or (not (<= .def_103 C_1)) (<= .def_107 C_1)) (and (not (<= A_1 0)) (and (<= D_1 C_1) (and (not (<= (+ D_1 (* (- 1) C_1)) (- 4))) (and (= A_1 (select R_1 A_1)) (and (= D_1 A_1) (and (= I_1 0) (and (and (= (select Q_1 D_1) .def_116) (not (= .def_116 1))) (= .def_107 (select P_1 D_1))))))))))))) .loc.33))))) (state |.y.18| |.y.19| |.y.20| |.y.21| |.y.22| |.y.23| |.y.24| |.y.25| |.y.26| |.y.27| |.y.28| |.y.29| |.y.30| |.y.31| |.y.32| |.loc.33| |.xtv.1| |.xiv.1| |.xiv.2| |.xiv.3| |.xiv.4| |.xiv.5|))))
(assert (forall ((|E_1| Int) (|N_1| Int) (|F_1| Int) (|I_1| Int) (|L_1| Int) (|D_1| Int) (|K_1| Int) (|B_1| Int) (|M_1| Int) (|A_1| Int) (|G_1| Int) (|P_1| (Array Int Int)) (|Q_1| (Array Int Int)) (|R_1| (Array Int Int)) (|S_0| (Array Int Int)) (|.loc.17| Bool) (|C_1| Int) (|E_4| Int) (|B_5| Int) (|F_4| (Array Int Int)) (|G_4| (Array Int Int)) (|H_4| (Array Int Int)) (|.loc.33| Bool) (|.y.18| Int) (|.y.19| Int) (|.y.20| Int) (|.y.21| Int) (|.y.22| Int) (|.y.23| Int) (|.y.24| Int) (|.y.25| Int) (|.y.26| Int) (|.y.27| Int) (|.y.28| Int) (|.y.29| (Array Int Int)) (|.y.30| (Array Int Int)) (|.y.31| (Array Int Int)) (|.y.32| (Array Int Int)) (|.xtv.1| Int) (|.xiv.1| Int) (|.xiv.2| Int) (|.xiv.3| (Array Int Int)) (|.xiv.4| (Array Int Int)) (|.xiv.5| (Array Int Int))) (=> (state |E_1| |N_1| |F_1| |I_1| |L_1| |D_1| |K_1| |B_1| |M_1| |A_1| |G_1| |P_1| |Q_1| |R_1| |S_0| |.loc.17| |C_1| |E_4| |B_5| |F_4| |G_4| |H_4|) (not .loc.17))))
(check-sat)
